language ESSENCE' 1.0

letting jobs = 102
letting horizon = 860
letting resourcesRenew = 2
letting resourcesNonrenew = 2
letting resourceLimits = [20, 19, 480, 465]
letting successors = [[2, 3, 4, 5, 6, 7, 8, 10, 11, 13, 16], [33, 25, 23, 21, 20, 19, 18, 17, 15, 14], [33, 30, 23, 20, 19, 15, 9], [33, 30, 29, 21, 20, 18, 17, 12], [30, 21, 19, 18, 17, 15, 12], [24, 23, 22, 21, 20, 19, 14], [36, 32, 30, 29, 25, 24, 22, 21, 18], [29, 26, 20, 12], [25, 24, 21, 18, 17], [36, 29, 27, 25, 18, 15], [34, 33, 31, 30, 27, 25, 24, 18], [32, 28, 27, 25, 24, 22], [42, 40, 36, 29, 27, 18], [41, 40, 35, 34, 32, 31, 28, 26], [35, 34, 31, 28, 24], [41, 35, 33, 28, 23], [38, 36, 28, 22], [41, 35, 28, 26], [52, 45, 44, 42, 40, 38, 28], [45, 42, 37, 36, 35], [52, 45, 39, 38, 37, 27], [45, 39, 37, 34, 31], [52, 45, 40, 37, 29], [45, 44, 41, 40, 38, 37], [54, 52, 50, 48, 47, 45, 43, 42, 39], [52, 48, 45, 44, 43, 39, 37], [56, 55, 54, 51, 50, 48, 47, 46, 44, 43], [48, 47, 46, 43, 37], [56, 54, 44, 43, 38], [48, 45, 44, 43, 38], [55, 54, 50, 49, 47, 46, 43, 42], [47, 44, 43, 37], [58, 56, 55, 54, 52, 51, 50, 46, 44], [52, 50, 46, 44, 43, 42], [44, 43, 38], [57, 56, 55, 54, 53, 52, 51, 50, 48, 47, 46], [64, 63, 58, 57, 56, 55, 54, 51, 50, 49], [58, 57, 55, 51, 50, 49, 47, 46], [61, 58, 57, 55, 49, 46], [49, 43], [66, 64, 63, 62, 60, 56, 53, 50], [66, 64, 63, 57, 56, 51], [67, 66, 65, 64, 63, 61, 60, 59, 58, 57], [63, 60, 57, 49], [72, 67, 66, 65, 64, 63, 61, 60, 58], [77, 72, 71, 70, 68, 66, 65, 64, 63, 62, 59], [78, 77, 72, 71, 70, 68, 67, 66, 65, 62, 61], [78, 77, 72, 71, 70, 68, 67, 65, 63, 62, 61], [72, 70, 66, 53], [77, 72, 71, 70, 68, 67, 65, 61, 59], [71, 67, 65, 61, 60, 59], [78, 77, 72, 71, 70, 69, 68, 65, 61], [77, 76, 71, 68, 67, 65, 59], [78, 77, 71, 70, 68, 62], [77, 76, 75, 73, 72, 71, 69, 68], [77, 76, 71, 69, 68, 65], [78, 72, 71, 70, 62], [78, 77, 71, 68, 62], [84, 82, 78, 75, 74, 73, 69], [79, 78, 77, 75, 70], [84, 82, 81, 79, 75, 73], [84, 82, 75, 69], [76, 75, 69], [82, 81, 80, 79, 78, 75], [84, 81, 79, 75, 74], [82, 81, 80, 75, 74], [84, 69], [87, 84, 82, 80, 74], [101, 99, 97, 89, 83, 81, 80, 79], [83, 81, 80, 76], [101, 99, 97, 85, 83, 81, 79], [87, 86, 84, 83, 82], [101, 99, 97, 96, 89, 86, 83, 80], [101, 99, 97, 96, 89, 88, 86, 85, 83], [99, 96, 89, 87, 86, 85, 83], [101, 98, 89, 87, 86, 82], [96, 88, 85, 84], [101, 97, 96, 95, 94, 93, 88, 86], [96, 95, 94, 93, 87, 86], [98, 95, 90, 88, 85], [96, 95, 94, 93, 91, 90, 88], [97, 96, 95, 90, 85], [100, 98, 95, 93, 92, 91], [99, 97, 92, 91, 89], [94, 93, 91], [92, 91, 90], [90, 88], [92], [90], [102], [102], [102], [102], [102], [102], [102], [102], [102], [102], [102], [102], []]
letting durations = [[0], [5, 7, 9], [3, 8, 10], [6, 7, 8], [4, 5, 6], [1, 6, 8], [4, 8, 10], [5, 8, 10], [7, 8, 10], [2, 3, 9], [2, 8, 9], [1, 6, 8], [4, 6, 8], [6, 7, 9], [3, 4, 10], [1, 8, 10], [2, 7, 9], [2, 9, 10], [4, 8, 10], [1, 4, 6], [3, 4, 5], [3, 7, 10], [2, 7, 10], [5, 8, 9], [7, 9, 10], [2, 6, 10], [4, 5, 10], [5, 8, 9], [2, 4, 8], [1, 8, 10], [2, 3, 7], [5, 9, 10], [1, 9, 10], [3, 5, 10], [2, 8, 9], [2, 9, 10], [5, 6, 9], [2, 4, 6], [2, 5, 10], [1, 4, 8], [4, 5, 9], [1, 5, 8], [4, 5, 9], [4, 5, 10], [6, 8, 10], [1, 9, 10], [2, 3, 5], [1, 6, 8], [5, 9, 10], [1, 2, 10], [1, 4, 8], [1, 2, 6], [5, 7, 8], [3, 5, 8], [1, 2, 10], [5, 6, 7], [1, 8, 9], [4, 5, 7], [1, 3, 4], [2, 5, 10], [4, 6, 10], [4, 6, 7], [2, 5, 6], [1, 3, 5], [2, 7, 8], [2, 8, 9], [6, 7, 8], [3, 4, 8], [3, 6, 9], [2, 5, 6], [1, 2, 3], [1, 2, 9], [5, 7, 9], [1, 6, 9], [3, 8, 10], [4, 5, 10], [3, 5, 9], [3, 7, 8], [2, 4, 7], [2, 3, 9], [8, 9, 10], [8, 9, 10], [1, 4, 9], [1, 8, 10], [6, 7, 9], [1, 8, 9], [3, 5, 9], [2, 6, 7], [5, 6, 10], [1, 4, 7], [5, 8, 9], [2, 7, 8], [7, 9, 10], [7, 8, 9], [1, 2, 6], [3, 4, 10], [1, 2, 10], [3, 7, 10], [7, 8, 10], [2, 3, 4], [5, 9, 10], [0]]
letting resourceUsage = [[[0, 0, 0, 0]], [[2, 4, 5, 4], [2, 4, 5, 3], [1, 4, 5, 1]], [[2, 4, 9, 4], [2, 3, 6, 4], [2, 2, 4, 4]], [[4, 4, 3, 2], [4, 3, 3, 2], [4, 2, 1, 2]], [[3, 4, 7, 7], [3, 2, 6, 5], [3, 1, 5, 5]], [[2, 3, 10, 9], [1, 3, 7, 8], [1, 2, 3, 7]], [[2, 3, 8, 10], [2, 3, 4, 8], [2, 3, 2, 8]], [[2, 1, 3, 7], [1, 1, 2, 6], [1, 1, 1, 5]], [[4, 5, 6, 7], [3, 4, 6, 6], [1, 3, 6, 5]], [[4, 4, 6, 6], [2, 2, 6, 4], [2, 1, 5, 3]], [[2, 2, 9, 2], [2, 2, 7, 2], [1, 2, 6, 2]], [[3, 4, 6, 5], [2, 4, 6, 4], [2, 4, 3, 2]], [[1, 4, 10, 4], [1, 3, 10, 2], [1, 2, 10, 2]], [[5, 4, 9, 10], [4, 3, 8, 9], [3, 2, 6, 9]], [[5, 4, 8, 8], [4, 4, 8, 7], [3, 4, 6, 5]], [[2, 1, 7, 9], [1, 1, 6, 6], [1, 1, 3, 6]], [[5, 4, 5, 8], [3, 2, 3, 7], [3, 2, 2, 6]], [[4, 2, 6, 7], [2, 1, 4, 6], [2, 1, 4, 5]], [[3, 4, 7, 8], [3, 2, 6, 6], [3, 1, 6, 2]], [[3, 2, 9, 5], [3, 2, 8, 5], [1, 2, 8, 5]], [[4, 4, 7, 4], [3, 3, 7, 3], [3, 2, 7, 2]], [[4, 3, 5, 5], [3, 1, 5, 4], [2, 1, 5, 4]], [[4, 1, 3, 5], [3, 1, 2, 3], [3, 1, 2, 1]], [[4, 2, 6, 8], [3, 1, 5, 7], [3, 1, 5, 4]], [[2, 2, 8, 9], [2, 1, 6, 8], [2, 1, 5, 7]], [[2, 5, 4, 2], [1, 5, 3, 1], [1, 5, 1, 1]], [[4, 1, 5, 9], [4, 1, 5, 8], [4, 1, 4, 7]], [[5, 3, 4, 7], [4, 2, 3, 6], [4, 2, 2, 5]], [[3, 4, 2, 8], [3, 3, 1, 8], [3, 3, 1, 6]], [[5, 4, 3, 9], [4, 3, 3, 5], [3, 3, 2, 4]], [[5, 4, 5, 8], [4, 2, 4, 7], [3, 2, 4, 5]], [[1, 5, 8, 5], [1, 4, 6, 5], [1, 4, 5, 1]], [[1, 3, 9, 8], [1, 3, 9, 7], [1, 3, 8, 6]], [[4, 2, 3, 9], [4, 2, 2, 9], [3, 2, 1, 9]], [[3, 3, 8, 5], [3, 2, 5, 4], [2, 2, 3, 3]], [[5, 3, 10, 10], [5, 2, 7, 7], [5, 2, 6, 5]], [[3, 4, 8, 8], [3, 4, 5, 7], [3, 3, 4, 4]], [[4, 5, 7, 8], [4, 4, 6, 5], [2, 4, 4, 1]], [[5, 4, 8, 9], [4, 4, 7, 6], [3, 4, 7, 4]], [[5, 4, 5, 7], [3, 3, 5, 7], [3, 3, 4, 5]], [[4, 1, 10, 9], [4, 1, 8, 4], [3, 1, 5, 3]], [[4, 4, 9, 5], [3, 4, 5, 5], [3, 3, 2, 2]], [[5, 4, 8, 5], [4, 2, 6, 4], [3, 2, 6, 3]], [[3, 5, 3, 7], [3, 3, 2, 4], [2, 3, 2, 3]], [[5, 3, 7, 4], [4, 2, 5, 3], [4, 1, 5, 2]], [[3, 3, 10, 9], [2, 1, 10, 8], [2, 1, 10, 7]], [[2, 3, 7, 7], [2, 2, 4, 6], [2, 2, 3, 5]], [[4, 2, 6, 4], [4, 2, 4, 4], [3, 2, 3, 3]], [[3, 1, 10, 2], [2, 1, 6, 2], [1, 1, 4, 2]], [[5, 4, 8, 10], [4, 3, 6, 8], [3, 2, 4, 6]], [[2, 4, 9, 7], [2, 4, 7, 7], [2, 4, 3, 4]], [[4, 4, 8, 6], [4, 2, 7, 6], [4, 2, 5, 6]], [[1, 5, 6, 6], [1, 5, 5, 6], [1, 5, 5, 5]], [[3, 1, 8, 7], [1, 1, 6, 6], [1, 1, 6, 3]], [[2, 1, 6, 9], [1, 1, 5, 6], [1, 1, 4, 3]], [[1, 3, 3, 5], [1, 2, 2, 2], [1, 1, 2, 1]], [[5, 1, 8, 5], [3, 1, 7, 4], [3, 1, 7, 3]], [[4, 1, 6, 7], [3, 1, 5, 7], [3, 1, 5, 3]], [[3, 3, 7, 7], [3, 2, 7, 7], [3, 2, 6, 5]], [[4, 2, 4, 8], [4, 1, 2, 8], [4, 1, 1, 8]], [[3, 3, 8, 5], [3, 2, 5, 4], [3, 1, 4, 4]], [[3, 4, 7, 6], [2, 4, 3, 6], [2, 4, 2, 5]], [[5, 3, 2, 5], [4, 2, 2, 5], [3, 2, 1, 4]], [[4, 4, 7, 4], [3, 4, 7, 4], [2, 3, 7, 3]], [[3, 3, 9, 7], [3, 2, 7, 3], [2, 2, 3, 2]], [[4, 2, 8, 9], [4, 1, 7, 8], [4, 1, 5, 7]], [[3, 2, 8, 6], [3, 1, 8, 5], [3, 1, 8, 3]], [[3, 2, 6, 2], [2, 1, 5, 2], [2, 1, 5, 1]], [[3, 1, 7, 8], [3, 1, 6, 8], [1, 1, 2, 5]], [[1, 5, 7, 8], [1, 3, 7, 5], [1, 2, 7, 3]], [[3, 5, 7, 5], [1, 4, 4, 4], [1, 3, 1, 4]], [[4, 4, 10, 2], [2, 4, 9, 1], [1, 4, 9, 1]], [[2, 3, 6, 4], [1, 3, 4, 3], [1, 1, 3, 3]], [[5, 4, 10, 7], [3, 3, 10, 5], [3, 1, 10, 1]], [[4, 4, 4, 8], [3, 2, 4, 4], [3, 1, 4, 4]], [[3, 4, 3, 8], [2, 3, 3, 6], [2, 3, 3, 5]], [[4, 4, 4, 8], [3, 3, 4, 5], [1, 2, 3, 4]], [[4, 3, 6, 4], [3, 3, 5, 3], [2, 3, 3, 3]], [[2, 5, 1, 3], [2, 2, 1, 2], [2, 2, 1, 1]], [[1, 5, 6, 10], [1, 2, 6, 9], [1, 2, 6, 8]], [[3, 2, 1, 10], [3, 1, 1, 9], [3, 1, 1, 8]], [[2, 3, 5, 1], [1, 3, 4, 2], [1, 3, 4, 1]], [[4, 3, 8, 7], [4, 3, 8, 5], [4, 2, 8, 3]], [[1, 2, 9, 10], [1, 1, 8, 7], [1, 1, 6, 3]], [[5, 3, 6, 5], [4, 2, 6, 4], [4, 1, 4, 2]], [[4, 4, 4, 7], [4, 2, 4, 7], [3, 1, 4, 7]], [[3, 2, 7, 3], [2, 2, 5, 3], [2, 1, 2, 2]], [[1, 4, 6, 7], [1, 3, 6, 5], [1, 3, 3, 3]], [[3, 3, 8, 5], [2, 3, 6, 5], [1, 3, 3, 3]], [[5, 5, 4, 6], [5, 3, 4, 6], [5, 3, 3, 2]], [[1, 5, 3, 9], [1, 4, 3, 8], [1, 4, 3, 7]], [[4, 4, 3, 4], [3, 4, 3, 4], [3, 4, 2, 4]], [[4, 1, 7, 5], [3, 1, 7, 4], [3, 1, 6, 3]], [[4, 4, 8, 8], [4, 3, 8, 7], [4, 3, 5, 7]], [[1, 2, 7, 10], [1, 2, 7, 7], [1, 2, 5, 4]], [[3, 3, 5, 4], [2, 2, 5, 4], [2, 1, 5, 4]], [[2, 1, 5, 3], [2, 1, 4, 2], [2, 1, 3, 2]], [[3, 3, 8, 6], [3, 2, 8, 5], [1, 2, 6, 4]], [[3, 3, 3, 7], [2, 3, 2, 7], [2, 2, 2, 7]], [[3, 5, 3, 6], [2, 4, 3, 6], [2, 4, 3, 5]], [[5, 3, 10, 10], [3, 2, 9, 5], [3, 1, 8, 4]], [[0, 0, 0, 0]]]
